NAME: n100q10A.tsp, 100 nodes, semilla 0
COMMENT: Problema aleatorio de norma euclidea
DIMENSION: 100
CAPACITY: 10
EDGE_WEIGHT_TYPE: EUC_2D
NODE_COORD_SECTION
1   0.0000   0.0000
2 220.0000 -461.0000
3 -62.0000 -261.0000
4 298.0000 356.0000
5 -214.0000 -134.0000
6 113.0000 -49.0000
7 -399.0000 354.0000
8 -218.0000 -357.0000
9 422.0000  38.0000
10 -214.0000 446.0000
11 181.0000 498.0000
12 392.0000 477.0000
13 407.0000 156.0000
14 -176.0000 -42.0000
15 -259.0000 382.0000
16 -221.0000 226.0000
17  91.0000 -53.0000
18  88.0000 341.0000
19 -262.0000 408.0000
20 118.0000 112.0000
21 368.0000 -43.0000
22 379.0000  34.0000
23 388.0000 -276.0000
24  85.0000  98.0000
25 -388.0000 -287.0000
26 -433.0000  79.0000
27 -95.0000 130.0000
28   6.0000 -220.0000
29 150.0000 -111.0000
30 -323.0000 -170.0000
31 -235.0000 -168.0000
32 -363.0000 -385.0000
33 -397.0000 429.0000
34 -95.0000 153.0000
35 357.0000 -162.0000
36 273.0000  99.0000
37 -286.0000 -402.0000
38 204.0000 184.0000
39 443.0000 -239.0000
40 -124.0000 248.0000
41 -495.0000 372.0000
42 -347.0000 174.0000
43   5.0000 320.0000
44 -313.0000 -260.0000
45 438.0000 305.0000
46 -164.0000 -476.0000
47 -106.0000  34.0000
48  75.0000 -479.0000
49 462.0000 484.0000
50 -434.0000 125.0000
51 331.0000  70.0000
52 -263.0000 -332.0000
53 137.0000 -250.0000
54 228.0000 120.0000
55 -176.0000 201.0000
56 275.0000 423.0000
57 -437.0000 312.0000
58 -308.0000  66.0000
59 248.0000 -380.0000
60 121.0000 -449.0000
61 469.0000 -165.0000
62  78.0000  25.0000
63  32.0000 -453.0000
64 -227.0000 -41.0000
65 -365.0000  31.0000
66 -64.0000  82.0000
67 -339.0000 168.0000
68 143.0000 315.0000
69  28.0000 477.0000
70 -405.0000 324.0000
71 -255.0000 269.0000
72 -478.0000 325.0000
73 -203.0000 308.0000
74 -236.0000 227.0000
75 -437.0000 141.0000
76 -419.0000 -452.0000
77 -171.0000 248.0000
78 -316.0000 -386.0000
79 244.0000 260.0000
80  -5.0000 392.0000
81 -366.0000 -138.0000
82 152.0000  73.0000
83 -29.0000 -245.0000
84 475.0000 -480.0000
85 323.0000 322.0000
86 -47.0000 411.0000
87 -343.0000 -251.0000
88 -24.0000 412.0000
89 220.0000 -63.0000
90 -244.0000 -111.0000
91 341.0000 -52.0000
92  -6.0000 355.0000
93 342.0000 256.0000
94 -332.0000 -295.0000
95  57.0000 317.0000
96 428.0000 -498.0000
97  52.0000 -285.0000
98 -220.0000 -416.0000
99 347.0000 175.0000
100 300.0000 -485.0000
DISPLAY_DATA_SECTION:
 1  250  250
 2  360   19
 3  219  119
 4  399  428
 5  143  183
 6  306  225
 7   50  427
 8  141   71
 9  461  269
10  143  473
11  340  499
12  446  488
13  453  328
14  162  229
15  120  441
16  139  363
17  295  223
18  294  420
19  119  454
20  309  306
21  434  228
22  439  267
23  444  112
24  292  299
25   56  106
26   33  289
27  202  315
28  253  140
29  325  194
30   88  165
31  132  166
32   68   57
33   51  464
34  202  326
35  428  169
36  386  299
37  107   49
38  352  342
39  471  130
40  188  374
41    2  436
42   76  337
43  252  410
44   93  120
45  469  402
46  168   12
47  197  267
48  287   10
49  481  492
50   33  312
51  415  285
52  118   84
53  318  125
54  364  310
55  162  350
56  387  461
57   31  406
58   96  283
59  374   60
60  310   25
61  484  167
62  289  262
63  266   23
64  136  229
65   67  265
66  218  291
67   80  334
68  321  407
69  264  488
70   47  412
71  122  384
72   11  412
73  148  404
74  132  363
75   31  320
76   40   24
77  164  374
78   92   57
79  372  380
80  247  446
81   67  181
82  326  286
83  235  127
84  487   10
85  411  411
86  226  455
87   78  124
88  238  456
89  360  218
90  128  194
91  420  224
92  247  427
93  421  378
94   84  102
95  278  408
96  464    1
97  276  107
98  140   42
99  423  337
100  400    7
DEMAND_SECTION
1 4
2 7
3 9
4 -1
5 9
6 0
7 4
8 1
9 -5
10 0
11 -1
12 2
13 5
14 -1
15 -6
16 -4
17 4
18 -2
19 0
20 0
21 -8
22 -3
23 -2
24 9
25 6
26 -8
27 6
28 -3
29 -5
30 0
31 -7
32 -4
33 -8
34 8
35 -1
36 -1
37 7
38 4
39 8
40 0
41 5
42 -7
43 1
44 2
45 -5
46 3
47 -7
48 -3
49 9
50 5
51 8
52 -1
53 1
54 8
55 -1
56 -1
57 -10
58 0
59 -1
60 -5
61 7
62 4
63 -4
64 -3
65 -3
66 7
67 6
68 1
69 1
70 5
71 0
72 -9
73 -4
74 -3
75 -6
76 2
77 -1
78 -4
79 2
80 -9
81 5
82 -4
83 8
84 1
85 -7
86 4
87 -8
88 8
89 1
90 -8
91 -3
92 0
93 -3
94 -9
95 8
96 4
97 -5
98 9
99 -4
100 -10
EOF